101132
81,72,51,7,56,17,20,67,76,14,70,62,80,26,36,66,71,54,46,45,73,64,29,10,1,37,18,13,21,9,77,58,74,32,40,82,75,11,33,27,16,38,2,30,35,28,79,6,61,83,8,53,59,68,44,22,5,19,48,24,31,65,50,4,63,39,52,41,78,69,15,25,42,55,23,12,3,43,57,34,49,47,60
